WARNING: for repeatability, setting FPU to use double precision
============================[ Problem Statistics ]=============================
|                                                                             |
|  Number of variables:        120049                                         |
|  Number of clauses:         3876640                                         |
|  Parse time:                   1.24 s                                       |
|  Eliminated clauses:           0.02 Mb                                      |
|  Simplification time:          1.34 s                                       |
|                                                                             |
============================[ Search Statistics ]==============================
| Conflicts |          ORIGINAL         |          LEARNT          | Progress |
|           |    Vars  Clauses Literals |    Limit  Clauses Lit/Cl |          |
===============================================================================
|       100 |   11769   187131   402999 |    68614      100    254 | 88.197 % |
|       250 |   11769   187131   402999 |    75476      250    255 | 88.197 % |
|       475 |   11769   187131   402999 |    83023      475    282 | 88.197 % |
|       812 |   11769   187131   402999 |    91326      812    247 | 88.197 % |
|      1318 |   11769   187131   402999 |   100458     1318    273 | 88.197 % |
|      2077 |   11769   187131   402999 |   110504     2077    328 | 88.197 % |
|      3216 |   11769   187131   402999 |   121555     3216    375 | 88.197 % |
|      4924 |   11769   187131   402999 |   133710     4924    389 | 88.197 % |
|      7486 |   11769   187131   402999 |   147081     7486    412 | 88.197 % |
|     11330 |   11769   187131   402999 |   161789    11330    416 | 88.197 % |
|     17096 |   11769   187131   402999 |   177968    17096    420 | 88.197 % |
|     25745 |   11769   187131   402999 |   195765    25745    459 | 88.197 % |
|     38719 |   11769   187131   402999 |   215342    38719    493 | 88.197 % |
|     58180 |   11769   187131   402999 |   236876    58180    519 | 88.197 % |
|     87372 |   11769   187131   402999 |   260564    87372    506 | 88.197 % |
|    131161 |   11769   187131   402999 |   286620   131161    496 | 88.197 % |
|    196845 |   11769   187131   402999 |   315282   196845    513 | 88.197 % |
|    295371 |   11769   187131   402999 |   346810   295371    559 | 88.197 % |
|    443160 |   11769   187131   402999 |   381492   443160    563 | 88.197 % |
|    664843 |   11769   187131   402999 |   419641   185667    615 | 88.197 % |
===============================================================================
restarts              : 2009
conflicts             : 916406         (1763 /sec)
decisions             : 11132447       (0.00 % random) (21420 /sec)
propagations          : 395769211      (761501 /sec)
conflict literals     : 534044921      (1.88 % deleted)
Memory used           : 1733.00 MB
CPU time              : 519.722 s

SATISFIABLE
